(set-option :print-success false)
(set-logic QF_LIA)
(set-info :smt-lib-version 2.0)
(declare-fun A@auth0 () Bool)
(declare-fun B@auth0 () Bool)
(declare-fun C@auth0 () Bool)
(assert (and A@auth0 (and B@auth0 C@auth0)))
(assert (not C@auth0))
(check-sat) 